SCHOLAR = {S1, S2, S3, S4, S5, S6, S7, S8, S9, S10, S11, S12, S13, S14, S15, S16, S17, S18, S19, S20};
reputation = [10, 7, 5, 6, 2, 10, 10, 10, 4, 3, 7, 8, 3, 9, 8, 6, 3, 5, 1, 7];

T = 5;
S = 5;
enemies = [| S1, S2 | S4, S5 | S6, S7 | S8, S10
           | S11, S12 | S13, S14 | S17, S18 |];
friends = [| S1, S5 | S2, S6 |];